resultat/output_msg_crypt.txt
[13172281435, 20681065275, 20681065275, 13172281435, 13172281435, 13172281435, 3255532239, 20681065275, 20681065275, 13172281435, 20681065275, 13172281435, 20681065275, 3255532239, 20681065275, 13172281435, 20681065275, 20681065275, 20681065275, 13172281435]